(set-logic HORN)
(declare-datatypes ((Nat_1 0)) (((Z_0 ) (S_0 (unS_0 Nat_1)))))
(declare-fun diseqNat_0 (Nat_1 Nat_1) Bool)
(declare-fun unS_1 (Nat_1 Nat_1) Bool)
(declare-fun isZ_0 (Nat_1) Bool)
(declare-fun isS_0 (Nat_1) Bool)
(assert (forall ((x_48 Nat_1) (x_47 Nat_1))
	(=> (= x_48 (S_0 x_47))
	    (unS_1 x_47 x_48))))
(assert (isZ_0 Z_0))
(assert (forall ((x_49 Nat_1))
	(isS_0 (S_0 x_49))))
(assert (forall ((x_50 Nat_1))
	(diseqNat_0 Z_0 (S_0 x_50))))
(assert (forall ((x_51 Nat_1))
	(diseqNat_0 (S_0 x_51) Z_0)))
(assert (forall ((x_52 Nat_1) (x_53 Nat_1))
	(=> (diseqNat_0 x_52 x_53)
	    (diseqNat_0 (S_0 x_52) (S_0 x_53)))))
(declare-fun add_0 (Nat_1 Nat_1 Nat_1) Bool)
(declare-fun minus_0 (Nat_1 Nat_1 Nat_1) Bool)
(declare-fun le_0 (Nat_1 Nat_1) Bool)
(declare-fun ge_0 (Nat_1 Nat_1) Bool)
(declare-fun lt_0 (Nat_1 Nat_1) Bool)
(declare-fun gt_0 (Nat_1 Nat_1) Bool)
(declare-fun mult_0 (Nat_1 Nat_1 Nat_1) Bool)
(declare-fun div_0 (Nat_1 Nat_1 Nat_1) Bool)
(declare-fun mod_0 (Nat_1 Nat_1 Nat_1) Bool)
(assert (forall ((y_7 Nat_1))
	(add_0 y_7 Z_0 y_7)))
(assert (forall ((x_45 Nat_1) (y_7 Nat_1) (r_0 Nat_1))
	(=> (add_0 r_0 x_45 y_7)
	    (add_0 (S_0 r_0) (S_0 x_45) y_7))))
(assert (forall ((y_7 Nat_1))
	(minus_0 Z_0 Z_0 y_7)))
(assert (forall ((x_45 Nat_1) (y_7 Nat_1) (r_0 Nat_1))
	(=> (minus_0 r_0 x_45 y_7)
	    (minus_0 (S_0 r_0) (S_0 x_45) y_7))))
(assert (forall ((y_7 Nat_1))
	(le_0 Z_0 y_7)))
(assert (forall ((x_45 Nat_1) (y_7 Nat_1))
	(=> (le_0 x_45 y_7)
	    (le_0 (S_0 x_45) (S_0 y_7)))))
(assert (forall ((y_7 Nat_1))
	(ge_0 y_7 Z_0)))
(assert (forall ((x_45 Nat_1) (y_7 Nat_1))
	(=> (ge_0 x_45 y_7)
	    (ge_0 (S_0 x_45) (S_0 y_7)))))
(assert (forall ((y_7 Nat_1))
	(lt_0 Z_0 (S_0 y_7))))
(assert (forall ((x_45 Nat_1) (y_7 Nat_1))
	(=> (lt_0 x_45 y_7)
	    (lt_0 (S_0 x_45) (S_0 y_7)))))
(assert (forall ((y_7 Nat_1))
	(gt_0 (S_0 y_7) Z_0)))
(assert (forall ((x_45 Nat_1) (y_7 Nat_1))
	(=> (gt_0 x_45 y_7)
	    (gt_0 (S_0 x_45) (S_0 y_7)))))
(assert (forall ((y_7 Nat_1))
	(mult_0 Z_0 Z_0 y_7)))
(assert (forall ((x_45 Nat_1) (y_7 Nat_1) (r_0 Nat_1) (z_5 Nat_1))
	(=>	(and (mult_0 r_0 x_45 y_7)
			(add_0 z_5 r_0 y_7))
		(mult_0 z_5 (S_0 x_45) y_7))))
(assert (forall ((x_45 Nat_1) (y_7 Nat_1))
	(=> (lt_0 x_45 y_7)
	    (div_0 Z_0 x_45 y_7))))
(assert (forall ((x_45 Nat_1) (y_7 Nat_1) (r_0 Nat_1) (z_5 Nat_1))
	(=>	(and (ge_0 x_45 y_7)
			(minus_0 z_5 x_45 y_7)
			(div_0 r_0 z_5 y_7))
		(div_0 (S_0 r_0) x_45 y_7))))
(assert (forall ((x_45 Nat_1) (y_7 Nat_1))
	(=> (lt_0 x_45 y_7)
	    (mod_0 x_45 x_45 y_7))))
(assert (forall ((x_45 Nat_1) (y_7 Nat_1) (r_0 Nat_1) (z_5 Nat_1))
	(=>	(and (ge_0 x_45 y_7)
			(minus_0 z_5 x_45 y_7)
			(mod_0 r_0 z_5 y_7))
		(mod_0 r_0 x_45 y_7))))
(declare-datatypes ((Nat_0 0)) (((zero_0 ) (succ_0 (p_0 Nat_0)))))
(declare-fun diseqNat_1 (Nat_0 Nat_0) Bool)
(declare-fun p_1 (Nat_0 Nat_0) Bool)
(declare-fun iszero_0 (Nat_0) Bool)
(declare-fun issucc_0 (Nat_0) Bool)
(assert (forall ((x_56 Nat_0) (x_55 Nat_0))
	(=> (= x_56 (succ_0 x_55))
	    (p_1 x_55 x_56))))
(assert (iszero_0 zero_0))
(assert (forall ((x_57 Nat_0))
	(issucc_0 (succ_0 x_57))))
(assert (forall ((x_58 Nat_0))
	(diseqNat_1 zero_0 (succ_0 x_58))))
(assert (forall ((x_59 Nat_0))
	(diseqNat_1 (succ_0 x_59) zero_0)))
(assert (forall ((x_60 Nat_0) (x_61 Nat_0))
	(=> (diseqNat_1 x_60 x_61)
	    (diseqNat_1 (succ_0 x_60) (succ_0 x_61)))))
(declare-datatypes ((list_0 0)) (((nil_0 ) (cons_0 (head_0 Nat_0) (tail_0 list_0)))))
(declare-fun diseqlist_0 (list_0 list_0) Bool)
(declare-fun head_1 (Nat_0 list_0) Bool)
(declare-fun tail_1 (list_0 list_0) Bool)
(declare-fun isnil_0 (list_0) Bool)
(declare-fun iscons_0 (list_0) Bool)
(assert (forall ((x_65 list_0) (x_63 Nat_0) (x_64 list_0))
	(=> (= x_65 (cons_0 x_63 x_64))
	    (head_1 x_63 x_65))))
(assert (forall ((x_65 list_0) (x_63 Nat_0) (x_64 list_0))
	(=> (= x_65 (cons_0 x_63 x_64))
	    (tail_1 x_64 x_65))))
(assert (isnil_0 nil_0))
(assert (forall ((x_66 Nat_0) (x_67 list_0))
	(iscons_0 (cons_0 x_66 x_67))))
(assert (forall ((x_68 Nat_0) (x_69 list_0))
	(diseqlist_0 nil_0 (cons_0 x_68 x_69))))
(assert (forall ((x_70 Nat_0) (x_71 list_0))
	(diseqlist_0 (cons_0 x_70 x_71) nil_0)))
(assert (forall ((x_72 Nat_0) (x_73 list_0) (x_74 Nat_0) (x_75 list_0))
	(=> (diseqNat_1 x_72 x_74)
	    (diseqlist_0 (cons_0 x_72 x_73) (cons_0 x_74 x_75)))))
(assert (forall ((x_72 Nat_0) (x_73 list_0) (x_74 Nat_0) (x_75 list_0))
	(=> (diseqlist_0 x_73 x_75)
	    (diseqlist_0 (cons_0 x_72 x_73) (cons_0 x_74 x_75)))))
(declare-fun plus_0 (Nat_0 Nat_0 Nat_0) Bool)
(assert (forall ((x_0 Nat_0) (y_0 Nat_0) (z_0 Nat_0) (x_11 Nat_0) (x_12 Nat_0))
	(=>	(and (= x_11 (succ_0 x_12))
			(plus_0 x_12 z_0 y_0)
			(= x_0 (succ_0 z_0)))
		(plus_0 x_11 x_0 y_0))))
(assert (forall ((x_0 Nat_0) (y_0 Nat_0) (x_13 Nat_0))
	(=>	(and (= x_13 y_0)
			(= x_0 zero_0))
		(plus_0 x_13 x_0 y_0))))
(declare-fun leq_0 (Bool Nat_0 Nat_0) Bool)
(assert (forall ((x_1 Nat_0) (y_1 Nat_0) (z_1 Nat_0) (x_2 Nat_0) (x_14 Bool) (x_15 Bool))
	(=>	(and (= x_14 x_15)
			(leq_0 x_15 z_1 x_2)
			(= x_1 (succ_0 z_1))
			(= y_1 (succ_0 x_2)))
		(leq_0 x_14 x_1 y_1))))
(assert (forall ((x_1 Nat_0) (y_1 Nat_0) (z_1 Nat_0) (x_16 Bool))
	(=>	(and (= x_16 false)
			(= x_1 (succ_0 z_1))
			(= y_1 zero_0))
		(leq_0 x_16 x_1 y_1))))
(assert (forall ((x_1 Nat_0) (y_1 Nat_0) (x_17 Bool))
	(=>	(and (= x_17 true)
			(= x_1 zero_0))
		(leq_0 x_17 x_1 y_1))))
(declare-fun insert_0 (list_0 Nat_0 list_0) Bool)
(assert (forall ((x_3 Nat_0) (y_2 list_0) (z_2 Nat_0) (xs_0 list_0) (x_19 list_0) (x_18 Bool))
	(=>	(and (= x_19 (cons_0 x_3 (cons_0 z_2 xs_0)))
			(= y_2 (cons_0 z_2 xs_0))
			(= x_18 true)
			(leq_0 x_18 x_3 z_2))
		(insert_0 x_19 x_3 y_2))))
(assert (forall ((x_3 Nat_0) (y_2 list_0) (z_2 Nat_0) (xs_0 list_0) (x_21 list_0) (x_22 list_0) (x_20 Bool))
	(=>	(and (= x_21 (cons_0 z_2 x_22))
			(insert_0 x_22 x_3 xs_0)
			(= y_2 (cons_0 z_2 xs_0))
			(= x_20 false)
			(leq_0 x_20 x_3 z_2))
		(insert_0 x_21 x_3 y_2))))
(assert (forall ((x_3 Nat_0) (y_2 list_0) (x_23 list_0))
	(=>	(and (= x_23 (cons_0 x_3 nil_0))
			(= y_2 nil_0))
		(insert_0 x_23 x_3 y_2))))
(declare-fun isort_0 (list_0 list_0) Bool)
(assert (forall ((x_4 list_0) (y_3 Nat_0) (xs_1 list_0) (x_24 list_0) (x_25 list_0) (x_26 list_0))
	(=>	(and (= x_24 x_26)
			(isort_0 x_25 xs_1)
			(insert_0 x_26 y_3 x_25)
			(= x_4 (cons_0 y_3 xs_1)))
		(isort_0 x_24 x_4))))
(assert (forall ((x_4 list_0) (x_27 list_0))
	(=>	(and (= x_27 nil_0)
			(= x_4 nil_0))
		(isort_0 x_27 x_4))))
(declare-fun count_0 (Nat_0 Nat_0 list_0) Bool)
(assert (forall ((x_5 Nat_0) (y_4 list_0) (z_3 Nat_0) (ys_0 list_0) (x_28 Nat_0) (x_29 Nat_0) (x_30 Nat_0))
	(=>	(and (= x_28 x_30)
			(count_0 x_29 x_5 ys_0)
			(plus_0 x_30 (succ_0 zero_0) x_29)
			(= y_4 (cons_0 z_3 ys_0))
			(= x_5 z_3))
		(count_0 x_28 x_5 y_4))))
(assert (forall ((x_5 Nat_0) (y_4 list_0) (z_3 Nat_0) (ys_0 list_0) (x_31 Nat_0) (x_32 Nat_0))
	(=>	(and (= x_31 x_32)
			(count_0 x_32 x_5 ys_0)
			(= y_4 (cons_0 z_3 ys_0))
			(diseqNat_1 x_5 z_3))
		(count_0 x_31 x_5 y_4))))
(assert (forall ((x_5 Nat_0) (y_4 list_0) (x_33 Nat_0))
	(=>	(and (= x_33 zero_0)
			(= y_4 nil_0))
		(count_0 x_33 x_5 y_4))))
(assert (forall ((x_6 Nat_0) (y_5 Nat_0) (z_4 Nat_0) (x_34 Nat_0) (x_35 Nat_0) (x_36 Nat_0) (x_37 Nat_0))
	(=>	(and (diseqNat_1 x_35 x_37)
			(plus_0 x_34 y_5 z_4)
			(plus_0 x_35 x_6 x_34)
			(plus_0 x_36 x_6 y_5)
			(plus_0 x_37 x_36 z_4))
		false)))
(assert (forall ((x_7 Nat_0) (y_6 Nat_0) (x_38 Nat_0) (x_39 Nat_0))
	(=>	(and (diseqNat_1 x_38 x_39)
			(plus_0 x_38 x_7 y_6)
			(plus_0 x_39 y_6 x_7))
		false)))
(assert (forall ((x_8 Nat_0) (x_40 Nat_0))
	(=>	(and (diseqNat_1 x_40 x_8)
			(plus_0 x_40 x_8 zero_0))
		false)))
(assert (forall ((x_9 Nat_0) (x_41 Nat_0))
	(=>	(and (diseqNat_1 x_41 x_9)
			(plus_0 x_41 zero_0 x_9))
		false)))
(assert (forall ((x_10 Nat_0) (xs_2 list_0) (x_42 list_0) (x_43 Nat_0) (x_44 Nat_0))
	(=>	(and (diseqNat_1 x_43 x_44)
			(isort_0 x_42 xs_2)
			(count_0 x_43 x_10 x_42)
			(count_0 x_44 x_10 xs_2))
		false)))
(check-sat)
